# Objective value = 40
WA1n 0
WA1p 0
WA2n 1
WA2p 0
WB1n 0
WB1p 0
WB2n 1
WB2p 0
WC1n 1
WC1p 0
WD1n 1
WD1p 0
WE1n 2
WE1p 0
WE2n 1
WE2p 0
WF1n 3
WF1p 0
WF2n 1
WF2p 0
WG1n 6
WG1p 0
WH1n 6
WH1p 0
WI1n 6
WI1p 0
WT1n 5
WT1p 0
WT2n 1
WT2p 0
5 7
a 0
b 0
c 0
d 0
e 0
f 0
g 0
h 0
i 0
j 0
k 0
l 0
m 0
n 0
o 0
